



(declare-const TMP_BV_8 (_ BitVec 8))
(declare-const TMP_BV_16 (_ BitVec 16))
(declare-const TMP_BV_32 (_ BitVec 32))
(declare-const TMP_BV_64 (_ BitVec 64))
(declare-const TMP_BV_128 (_ BitVec 128))
(declare-const TMP_BV_256 (_ BitVec 256))
(declare-const TMP_BOOL Bool)
(declare-const rbx (_ BitVec 64))
(declare-const rax (_ BitVec 64))
(declare-const rcx (_ BitVec 64))
(declare-const rdx (_ BitVec 64))
(declare-const rsp (_ BitVec 64))
(declare-const rip (_ BitVec 64))
(declare-const ymm1 (_ BitVec 256))
(declare-const ymm2 (_ BitVec 256))
(declare-const ymm3 (_ BitVec 256))
(declare-const ymm0 (_ BitVec 256))
(declare-const zf Bool)
(declare-const sf Bool)
(declare-const cf Bool)
(declare-const pf Bool)
(declare-const af Bool)
(declare-const of Bool)

; Uninterpreted binary function declaration
(declare-fun comisd ((_ BitVec 64) (_ BitVec 64)) (_ BitVec 2))
(declare-fun comiss ((_ BitVec 32) (_ BitVec 32)) (_ BitVec 2))
(declare-fun    cvt_single_to_fp16_rm   ((_ BitVec 32) (_ BitVec 8)) (_ BitVec 16) )
(declare-fun    cvt_single_to_int32_rm  ((_ BitVec 32) (_ BitVec 8)) (_ BitVec 32) )
(declare-fun    cvt_double_to_int64_rm  ((_ BitVec 64) (_ BitVec 8)) (_ BitVec 64) )

(declare-fun add_double ((_ BitVec 64) (_ BitVec 64)) (_ BitVec 64))
(declare-fun add_single ((_ BitVec 32) (_ BitVec 32)) (_ BitVec 32))
(declare-fun sub_double ((_ BitVec 64) (_ BitVec 64)) (_ BitVec 64))
(declare-fun sub_single ((_ BitVec 32) (_ BitVec 32)) (_ BitVec 32))
(declare-fun div_double ((_ BitVec 64) (_ BitVec 64)) (_ BitVec 64))
(declare-fun div_single ((_ BitVec 32) (_ BitVec 32)) (_ BitVec 32))
(declare-fun mul_double ((_ BitVec 64) (_ BitVec 64)) (_ BitVec 64))
(declare-fun mul_single ((_ BitVec 32) (_ BitVec 32)) (_ BitVec 32))
(declare-fun maxcmp_double ((_ BitVec 64) (_ BitVec 64)) (_ BitVec 1))
(declare-fun maxcmp_single ((_ BitVec 32) (_ BitVec 32)) (_ BitVec 1))
(declare-fun mincmp_double ((_ BitVec 64) (_ BitVec 64)) (_ BitVec 1))
(declare-fun mincmp_single ((_ BitVec 32) (_ BitVec 32)) (_ BitVec 1))

(declare-fun idiv_quotient_int8   ((_ BitVec 16) (_ BitVec 8)) (_ BitVec 8))
(declare-fun idiv_remainder_int8  ((_ BitVec 16) (_ BitVec 8)) (_ BitVec 8))
(declare-fun idiv_quotient_int16  ((_ BitVec 32) (_ BitVec 16)) (_ BitVec 16))
(declare-fun idiv_remainder_int16 ((_ BitVec 32) (_ BitVec 16)) (_ BitVec 16))
(declare-fun idiv_quotient_int32  ((_ BitVec 64) (_ BitVec 32)) (_ BitVec 32))
(declare-fun idiv_remainder_int32 ((_ BitVec 64) (_ BitVec 32)) (_ BitVec 32))
(declare-fun idiv_quotient_int64  ((_ BitVec 128) (_ BitVec 64)) (_ BitVec 64))
(declare-fun idiv_remainder_int64 ((_ BitVec 128) (_ BitVec 64)) (_ BitVec 64))
(declare-fun div_quotient_int8   ((_ BitVec 16) (_ BitVec 8)) (_ BitVec 8))
(declare-fun div_remainder_int8  ((_ BitVec 16) (_ BitVec 8)) (_ BitVec 8))
(declare-fun div_quotient_int16  ((_ BitVec 32) (_ BitVec 16)) (_ BitVec 16))
(declare-fun div_remainder_int16 ((_ BitVec 32) (_ BitVec 16)) (_ BitVec 16))
(declare-fun div_quotient_int32  ((_ BitVec 64) (_ BitVec 32)) (_ BitVec 32))
(declare-fun div_remainder_int32 ((_ BitVec 64) (_ BitVec 32)) (_ BitVec 32))
(declare-fun div_quotient_int64  ((_ BitVec 128) (_ BitVec 64)) (_ BitVec 64))
(declare-fun div_remainder_int64 ((_ BitVec 128) (_ BitVec 64)) (_ BitVec 64))

; Uninterpreted unary function declaration
(declare-fun    cvt_half_to_single      ((_ BitVec 16)) (_ BitVec 32) )
(declare-fun    cvt_double_to_int64_truncate     ((_ BitVec 64)) (_ BitVec 64) )
(declare-fun    cvt_single_to_int64_truncate     ((_ BitVec 32)) (_ BitVec 64) )

(declare-fun approx_reciprocal_double       ((_ BitVec 64)) (_ BitVec 64) )
(declare-fun approx_reciprocal_single       ((_ BitVec 32)) (_ BitVec 32) )
(declare-fun sqrt_double                    ((_ BitVec 64)) (_ BitVec 64) )
(declare-fun sqrt_single                    ((_ BitVec 32)) (_ BitVec 32) )
(declare-fun approx_reciprocal_sqrt_double  ((_ BitVec 64)) (_ BitVec 64) )
(declare-fun approx_reciprocal_sqrt_single  ((_ BitVec 32)) (_ BitVec 32) )

(declare-fun cvt_single_to_double           ((_ BitVec 32)) (_ BitVec 64) )
(declare-fun cvt_double_to_single           ((_ BitVec 64)) (_ BitVec 32) )

(declare-fun cvt_single_to_int32            ((_ BitVec 32)) (_ BitVec 32) )
(declare-fun cvt_single_to_int32_truncate   ((_ BitVec 32)) (_ BitVec 32) )
(declare-fun cvt_single_to_int64            ((_ BitVec 32)) (_ BitVec 64) )
(declare-fun cvt_double_to_int32            ((_ BitVec 64)) (_ BitVec 32) )
(declare-fun cvt_double_to_int32_truncate   ((_ BitVec 64)) (_ BitVec 32) )
(declare-fun cvt_double_to_int64            ((_ BitVec 64)) (_ BitVec 64) )

(declare-fun cvt_int32_to_single            ((_ BitVec 32)) (_ BitVec 32) )
(declare-fun cvt_int32_to_double            ((_ BitVec 32)) (_ BitVec 64) )
(declare-fun cvt_int64_to_single            ((_ BitVec 64)) (_ BitVec 32) )
(declare-fun cvt_int64_to_double            ((_ BitVec 64)) (_ BitVec 64) )

; Uninterpreted ternary function declaration
(declare-fun cmp_double_pred ((_ BitVec 64) (_ BitVec 64) (_ BitVec 8)) (_ BitVec 1))
(declare-fun cmp_single_pred ((_ BitVec 32) (_ BitVec 32) (_ BitVec 8)) (_ BitVec 1))

(declare-fun vfmadd132_double ((_ BitVec 64) (_ BitVec 64) (_ BitVec 64)) (_ BitVec 64))
(declare-fun vfmadd132_single ((_ BitVec 32) (_ BitVec 32) (_ BitVec 32)) (_ BitVec 32))
(declare-fun vfmadd231_double ((_ BitVec 64) (_ BitVec 64) (_ BitVec 64)) (_ BitVec 64))
(declare-fun vfmadd231_single ((_ BitVec 32) (_ BitVec 32) (_ BitVec 32)) (_ BitVec 32))
(declare-fun vfmadd213_double ((_ BitVec 64) (_ BitVec 64) (_ BitVec 64)) (_ BitVec 64))
(declare-fun vfmadd213_single ((_ BitVec 32) (_ BitVec 32) (_ BitVec 32)) (_ BitVec 32))
(declare-fun vfmsub132_double ((_ BitVec 64) (_ BitVec 64) (_ BitVec 64)) (_ BitVec 64))
(declare-fun vfmsub132_single ((_ BitVec 32) (_ BitVec 32) (_ BitVec 32)) (_ BitVec 32))
(declare-fun vfmsub231_double ((_ BitVec 64) (_ BitVec 64) (_ BitVec 64)) (_ BitVec 64))
(declare-fun vfmsub231_single ((_ BitVec 32) (_ BitVec 32) (_ BitVec 32)) (_ BitVec 32))
(declare-fun vfmsub213_double ((_ BitVec 64) (_ BitVec 64) (_ BitVec 64)) (_ BitVec 64))
(declare-fun vfmsub213_single ((_ BitVec 32) (_ BitVec 32) (_ BitVec 32)) (_ BitVec 32))
(declare-fun vfnmadd132_double ((_ BitVec 64) (_ BitVec 64) (_ BitVec 64)) (_ BitVec 64))
(declare-fun vfnmadd132_single ((_ BitVec 32) (_ BitVec 32) (_ BitVec 32)) (_ BitVec 32))
(declare-fun vfnmsub132_double ((_ BitVec 64) (_ BitVec 64) (_ BitVec 64)) (_ BitVec 64))
(declare-fun vfnmsub132_single ((_ BitVec 32) (_ BitVec 32) (_ BitVec 32)) (_ BitVec 32))


( push )
( echo "vmpsadbw_xmm_xmm_m128_imm8::ymm1")
(assert (not (=
(let ((a!1 (ite (bvugt (concat #x00 ((_ extract 63 56) ymm2))
(concat #x00 ((_ extract 7 0) TMP_BV_128)))
(bvsub (concat #x00 ((_ extract 63 56) ymm2))
(concat #x00 ((_ extract 7 0) TMP_BV_128)))
(bvsub (concat #x00 ((_ extract 7 0) TMP_BV_128))
(concat #x00 ((_ extract 63 56) ymm2)))))
(a!2 (ite (bvugt (concat #x00 ((_ extract 71 64) ymm2))
(concat #x00 ((_ extract 15 8) TMP_BV_128)))
(bvsub (concat #x00 ((_ extract 71 64) ymm2))
(concat #x00 ((_ extract 15 8) TMP_BV_128)))
(bvsub (concat #x00 ((_ extract 15 8) TMP_BV_128))
(concat #x00 ((_ extract 71 64) ymm2)))))
(a!3 (ite (bvugt (concat #x00 ((_ extract 79 72) ymm2))
(concat #x00 ((_ extract 23 16) TMP_BV_128)))
(bvsub (concat #x00 ((_ extract 79 72) ymm2))
(concat #x00 ((_ extract 23 16) TMP_BV_128)))
(bvsub (concat #x00 ((_ extract 23 16) TMP_BV_128))
(concat #x00 ((_ extract 79 72) ymm2)))))
(a!4 (ite (bvugt (concat #x00 ((_ extract 87 80) ymm2))
(concat #x00 ((_ extract 31 24) TMP_BV_128)))
(bvsub (concat #x00 ((_ extract 87 80) ymm2))
(concat #x00 ((_ extract 31 24) TMP_BV_128)))
(bvsub (concat #x00 ((_ extract 31 24) TMP_BV_128))
(concat #x00 ((_ extract 87 80) ymm2)))))
(a!5 (ite (bvugt (concat #x00 ((_ extract 55 48) ymm2))
(concat #x00 ((_ extract 7 0) TMP_BV_128)))
(bvsub (concat #x00 ((_ extract 55 48) ymm2))
(concat #x00 ((_ extract 7 0) TMP_BV_128)))
(bvsub (concat #x00 ((_ extract 7 0) TMP_BV_128))
(concat #x00 ((_ extract 55 48) ymm2)))))
(a!6 (ite (bvugt (concat #x00 ((_ extract 63 56) ymm2))
(concat #x00 ((_ extract 15 8) TMP_BV_128)))
(bvsub (concat #x00 ((_ extract 63 56) ymm2))
(concat #x00 ((_ extract 15 8) TMP_BV_128)))
(bvsub (concat #x00 ((_ extract 15 8) TMP_BV_128))
(concat #x00 ((_ extract 63 56) ymm2)))))
(a!7 (ite (bvugt (concat #x00 ((_ extract 71 64) ymm2))
(concat #x00 ((_ extract 23 16) TMP_BV_128)))
(bvsub (concat #x00 ((_ extract 71 64) ymm2))
(concat #x00 ((_ extract 23 16) TMP_BV_128)))
(bvsub (concat #x00 ((_ extract 23 16) TMP_BV_128))
(concat #x00 ((_ extract 71 64) ymm2)))))
(a!8 (ite (bvugt (concat #x00 ((_ extract 79 72) ymm2))
(concat #x00 ((_ extract 31 24) TMP_BV_128)))
(bvsub (concat #x00 ((_ extract 79 72) ymm2))
(concat #x00 ((_ extract 31 24) TMP_BV_128)))
(bvsub (concat #x00 ((_ extract 31 24) TMP_BV_128))
(concat #x00 ((_ extract 79 72) ymm2)))))
(a!9 (ite (bvugt (concat #x00 ((_ extract 47 40) ymm2))
(concat #x00 ((_ extract 7 0) TMP_BV_128)))
(bvsub (concat #x00 ((_ extract 47 40) ymm2))
(concat #x00 ((_ extract 7 0) TMP_BV_128)))
(bvsub (concat #x00 ((_ extract 7 0) TMP_BV_128))
(concat #x00 ((_ extract 47 40) ymm2)))))
(a!10 (ite (bvugt (concat #x00 ((_ extract 55 48) ymm2))
(concat #x00 ((_ extract 15 8) TMP_BV_128)))
(bvsub (concat #x00 ((_ extract 55 48) ymm2))
(concat #x00 ((_ extract 15 8) TMP_BV_128)))
(bvsub (concat #x00 ((_ extract 15 8) TMP_BV_128))
(concat #x00 ((_ extract 55 48) ymm2)))))
(a!11 (ite (bvugt (concat #x00 ((_ extract 63 56) ymm2))
(concat #x00 ((_ extract 23 16) TMP_BV_128)))
(bvsub (concat #x00 ((_ extract 63 56) ymm2))
(concat #x00 ((_ extract 23 16) TMP_BV_128)))
(bvsub (concat #x00 ((_ extract 23 16) TMP_BV_128))
(concat #x00 ((_ extract 63 56) ymm2)))))
(a!12 (ite (bvugt (concat #x00 ((_ extract 71 64) ymm2))
(concat #x00 ((_ extract 31 24) TMP_BV_128)))
(bvsub (concat #x00 ((_ extract 71 64) ymm2))
(concat #x00 ((_ extract 31 24) TMP_BV_128)))
(bvsub (concat #x00 ((_ extract 31 24) TMP_BV_128))
(concat #x00 ((_ extract 71 64) ymm2)))))
(a!13 (ite (bvugt (concat #x00 ((_ extract 39 32) ymm2))
(concat #x00 ((_ extract 7 0) TMP_BV_128)))
(bvsub (concat #x00 ((_ extract 39 32) ymm2))
(concat #x00 ((_ extract 7 0) TMP_BV_128)))
(bvsub (concat #x00 ((_ extract 7 0) TMP_BV_128))
(concat #x00 ((_ extract 39 32) ymm2)))))
(a!14 (ite (bvugt (concat #x00 ((_ extract 47 40) ymm2))
(concat #x00 ((_ extract 15 8) TMP_BV_128)))
(bvsub (concat #x00 ((_ extract 47 40) ymm2))
(concat #x00 ((_ extract 15 8) TMP_BV_128)))
(bvsub (concat #x00 ((_ extract 15 8) TMP_BV_128))
(concat #x00 ((_ extract 47 40) ymm2)))))
(a!15 (ite (bvugt (concat #x00 ((_ extract 55 48) ymm2))
(concat #x00 ((_ extract 23 16) TMP_BV_128)))
(bvsub (concat #x00 ((_ extract 55 48) ymm2))
(concat #x00 ((_ extract 23 16) TMP_BV_128)))
(bvsub (concat #x00 ((_ extract 23 16) TMP_BV_128))
(concat #x00 ((_ extract 55 48) ymm2)))))
(a!16 (ite (bvugt (concat #x00 ((_ extract 63 56) ymm2))
(concat #x00 ((_ extract 31 24) TMP_BV_128)))
(bvsub (concat #x00 ((_ extract 63 56) ymm2))
(concat #x00 ((_ extract 31 24) TMP_BV_128)))
(bvsub (concat #x00 ((_ extract 31 24) TMP_BV_128))
(concat #x00 ((_ extract 63 56) ymm2)))))
(a!17 (ite (bvugt (concat #x00 ((_ extract 31 24) ymm2))
(concat #x00 ((_ extract 7 0) TMP_BV_128)))
(bvsub (concat #x00 ((_ extract 31 24) ymm2))
(concat #x00 ((_ extract 7 0) TMP_BV_128)))
(bvsub (concat #x00 ((_ extract 7 0) TMP_BV_128))
(concat #x00 ((_ extract 31 24) ymm2)))))
(a!18 (ite (bvugt (concat #x00 ((_ extract 39 32) ymm2))
(concat #x00 ((_ extract 15 8) TMP_BV_128)))
(bvsub (concat #x00 ((_ extract 39 32) ymm2))
(concat #x00 ((_ extract 15 8) TMP_BV_128)))
(bvsub (concat #x00 ((_ extract 15 8) TMP_BV_128))
(concat #x00 ((_ extract 39 32) ymm2)))))
(a!19 (ite (bvugt (concat #x00 ((_ extract 47 40) ymm2))
(concat #x00 ((_ extract 23 16) TMP_BV_128)))
(bvsub (concat #x00 ((_ extract 47 40) ymm2))
(concat #x00 ((_ extract 23 16) TMP_BV_128)))
(bvsub (concat #x00 ((_ extract 23 16) TMP_BV_128))
(concat #x00 ((_ extract 47 40) ymm2)))))
(a!20 (ite (bvugt (concat #x00 ((_ extract 55 48) ymm2))
(concat #x00 ((_ extract 31 24) TMP_BV_128)))
(bvsub (concat #x00 ((_ extract 55 48) ymm2))
(concat #x00 ((_ extract 31 24) TMP_BV_128)))
(bvsub (concat #x00 ((_ extract 31 24) TMP_BV_128))
(concat #x00 ((_ extract 55 48) ymm2)))))
(a!21 (ite (bvugt (concat #x00 ((_ extract 23 16) ymm2))
(concat #x00 ((_ extract 7 0) TMP_BV_128)))
(bvsub (concat #x00 ((_ extract 23 16) ymm2))
(concat #x00 ((_ extract 7 0) TMP_BV_128)))
(bvsub (concat #x00 ((_ extract 7 0) TMP_BV_128))
(concat #x00 ((_ extract 23 16) ymm2)))))
(a!22 (ite (bvugt (concat #x00 ((_ extract 31 24) ymm2))
(concat #x00 ((_ extract 15 8) TMP_BV_128)))
(bvsub (concat #x00 ((_ extract 31 24) ymm2))
(concat #x00 ((_ extract 15 8) TMP_BV_128)))
(bvsub (concat #x00 ((_ extract 15 8) TMP_BV_128))
(concat #x00 ((_ extract 31 24) ymm2)))))
(a!23 (ite (bvugt (concat #x00 ((_ extract 39 32) ymm2))
(concat #x00 ((_ extract 23 16) TMP_BV_128)))
(bvsub (concat #x00 ((_ extract 39 32) ymm2))
(concat #x00 ((_ extract 23 16) TMP_BV_128)))
(bvsub (concat #x00 ((_ extract 23 16) TMP_BV_128))
(concat #x00 ((_ extract 39 32) ymm2)))))
(a!24 (ite (bvugt (concat #x00 ((_ extract 47 40) ymm2))
(concat #x00 ((_ extract 31 24) TMP_BV_128)))
(bvsub (concat #x00 ((_ extract 47 40) ymm2))
(concat #x00 ((_ extract 31 24) TMP_BV_128)))
(bvsub (concat #x00 ((_ extract 31 24) TMP_BV_128))
(concat #x00 ((_ extract 47 40) ymm2)))))
(a!25 (ite (bvugt (concat #x00 ((_ extract 15 8) ymm2))
(concat #x00 ((_ extract 7 0) TMP_BV_128)))
(bvsub (concat #x00 ((_ extract 15 8) ymm2))
(concat #x00 ((_ extract 7 0) TMP_BV_128)))
(bvsub (concat #x00 ((_ extract 7 0) TMP_BV_128))
(concat #x00 ((_ extract 15 8) ymm2)))))
(a!26 (ite (bvugt (concat #x00 ((_ extract 23 16) ymm2))
(concat #x00 ((_ extract 15 8) TMP_BV_128)))
(bvsub (concat #x00 ((_ extract 23 16) ymm2))
(concat #x00 ((_ extract 15 8) TMP_BV_128)))
(bvsub (concat #x00 ((_ extract 15 8) TMP_BV_128))
(concat #x00 ((_ extract 23 16) ymm2)))))
(a!27 (ite (bvugt (concat #x00 ((_ extract 31 24) ymm2))
(concat #x00 ((_ extract 23 16) TMP_BV_128)))
(bvsub (concat #x00 ((_ extract 31 24) ymm2))
(concat #x00 ((_ extract 23 16) TMP_BV_128)))
(bvsub (concat #x00 ((_ extract 23 16) TMP_BV_128))
(concat #x00 ((_ extract 31 24) ymm2)))))
(a!28 (ite (bvugt (concat #x00 ((_ extract 39 32) ymm2))
(concat #x00 ((_ extract 31 24) TMP_BV_128)))
(bvsub (concat #x00 ((_ extract 39 32) ymm2))
(concat #x00 ((_ extract 31 24) TMP_BV_128)))
(bvsub (concat #x00 ((_ extract 31 24) TMP_BV_128))
(concat #x00 ((_ extract 39 32) ymm2)))))
(a!29 (ite (bvugt (concat #x00 ((_ extract 7 0) ymm2))
(concat #x00 ((_ extract 7 0) TMP_BV_128)))
(bvsub (concat #x00 ((_ extract 7 0) ymm2))
(concat #x00 ((_ extract 7 0) TMP_BV_128)))
(bvsub (concat #x00 ((_ extract 7 0) TMP_BV_128))
(concat #x00 ((_ extract 7 0) ymm2)))))
(a!30 (ite (bvugt (concat #x00 ((_ extract 15 8) ymm2))
(concat #x00 ((_ extract 15 8) TMP_BV_128)))
(bvsub (concat #x00 ((_ extract 15 8) ymm2))
(concat #x00 ((_ extract 15 8) TMP_BV_128)))
(bvsub (concat #x00 ((_ extract 15 8) TMP_BV_128))
(concat #x00 ((_ extract 15 8) ymm2)))))
(a!31 (ite (bvugt (concat #x00 ((_ extract 23 16) ymm2))
(concat #x00 ((_ extract 23 16) TMP_BV_128)))
(bvsub (concat #x00 ((_ extract 23 16) ymm2))
(concat #x00 ((_ extract 23 16) TMP_BV_128)))
(bvsub (concat #x00 ((_ extract 23 16) TMP_BV_128))
(concat #x00 ((_ extract 23 16) ymm2)))))
(a!32 (ite (bvugt (concat #x00 ((_ extract 31 24) ymm2))
(concat #x00 ((_ extract 31 24) TMP_BV_128)))
(bvsub (concat #x00 ((_ extract 31 24) ymm2))
(concat #x00 ((_ extract 31 24) TMP_BV_128)))
(bvsub (concat #x00 ((_ extract 31 24) TMP_BV_128))
(concat #x00 ((_ extract 31 24) ymm2))))))
(let ((a!33 (concat (bvadd a!17 a!18 a!19 a!20)
(concat (bvadd a!21 a!22 a!23 a!24)
(concat (bvadd a!25 a!26 a!27 a!28)
(bvadd a!29 a!30 a!31 a!32))))))
(let ((a!34 (concat (bvadd a!5 a!6 a!7 a!8)
(concat (bvadd a!9 a!10 a!11 a!12)
(concat (bvadd a!13 a!14 a!15 a!16) a!33)))))
(concat #x00000000000000000000000000000000
(concat (bvadd a!1 a!2 a!3 a!4) a!34)))))

(let ((a!1 (ite (bvugt (concat #x00 ((_ extract 63 56) ymm2))
(concat #x00 ((_ extract 7 0) TMP_BV_128)))
(bvsub (concat #x00 ((_ extract 63 56) ymm2))
(concat #x00 ((_ extract 7 0) TMP_BV_128)))
(bvsub (concat #x00 ((_ extract 7 0) TMP_BV_128))
(concat #x00 ((_ extract 63 56) ymm2)))))
(a!2 (ite (bvugt (concat #x00 ((_ extract 71 64) ymm2))
(concat #x00 ((_ extract 15 8) TMP_BV_128)))
(bvsub (concat #x00 ((_ extract 71 64) ymm2))
(concat #x00 ((_ extract 15 8) TMP_BV_128)))
(bvsub (concat #x00 ((_ extract 15 8) TMP_BV_128))
(concat #x00 ((_ extract 71 64) ymm2)))))
(a!3 (ite (bvugt (concat #x00 ((_ extract 79 72) ymm2))
(concat #x00 ((_ extract 23 16) TMP_BV_128)))
(bvsub (concat #x00 ((_ extract 79 72) ymm2))
(concat #x00 ((_ extract 23 16) TMP_BV_128)))
(bvsub (concat #x00 ((_ extract 23 16) TMP_BV_128))
(concat #x00 ((_ extract 79 72) ymm2)))))
(a!4 (ite (bvugt (concat #x00 ((_ extract 87 80) ymm2))
(concat #x00 ((_ extract 31 24) TMP_BV_128)))
(bvsub (concat #x00 ((_ extract 87 80) ymm2))
(concat #x00 ((_ extract 31 24) TMP_BV_128)))
(bvsub (concat #x00 ((_ extract 31 24) TMP_BV_128))
(concat #x00 ((_ extract 87 80) ymm2)))))
(a!5 (ite (bvugt (concat #x00 ((_ extract 55 48) ymm2))
(concat #x00 ((_ extract 7 0) TMP_BV_128)))
(bvsub (concat #x00 ((_ extract 55 48) ymm2))
(concat #x00 ((_ extract 7 0) TMP_BV_128)))
(bvsub (concat #x00 ((_ extract 7 0) TMP_BV_128))
(concat #x00 ((_ extract 55 48) ymm2)))))
(a!6 (ite (bvugt (concat #x00 ((_ extract 63 56) ymm2))
(concat #x00 ((_ extract 15 8) TMP_BV_128)))
(bvsub (concat #x00 ((_ extract 63 56) ymm2))
(concat #x00 ((_ extract 15 8) TMP_BV_128)))
(bvsub (concat #x00 ((_ extract 15 8) TMP_BV_128))
(concat #x00 ((_ extract 63 56) ymm2)))))
(a!7 (ite (bvugt (concat #x00 ((_ extract 71 64) ymm2))
(concat #x00 ((_ extract 23 16) TMP_BV_128)))
(bvsub (concat #x00 ((_ extract 71 64) ymm2))
(concat #x00 ((_ extract 23 16) TMP_BV_128)))
(bvsub (concat #x00 ((_ extract 23 16) TMP_BV_128))
(concat #x00 ((_ extract 71 64) ymm2)))))
(a!8 (ite (bvugt (concat #x00 ((_ extract 79 72) ymm2))
(concat #x00 ((_ extract 31 24) TMP_BV_128)))
(bvsub (concat #x00 ((_ extract 79 72) ymm2))
(concat #x00 ((_ extract 31 24) TMP_BV_128)))
(bvsub (concat #x00 ((_ extract 31 24) TMP_BV_128))
(concat #x00 ((_ extract 79 72) ymm2)))))
(a!9 (ite (bvugt (concat #x00 ((_ extract 47 40) ymm2))
(concat #x00 ((_ extract 7 0) TMP_BV_128)))
(bvsub (concat #x00 ((_ extract 47 40) ymm2))
(concat #x00 ((_ extract 7 0) TMP_BV_128)))
(bvsub (concat #x00 ((_ extract 7 0) TMP_BV_128))
(concat #x00 ((_ extract 47 40) ymm2)))))
(a!10 (ite (bvugt (concat #x00 ((_ extract 55 48) ymm2))
(concat #x00 ((_ extract 15 8) TMP_BV_128)))
(bvsub (concat #x00 ((_ extract 55 48) ymm2))
(concat #x00 ((_ extract 15 8) TMP_BV_128)))
(bvsub (concat #x00 ((_ extract 15 8) TMP_BV_128))
(concat #x00 ((_ extract 55 48) ymm2)))))
(a!11 (ite (bvugt (concat #x00 ((_ extract 63 56) ymm2))
(concat #x00 ((_ extract 23 16) TMP_BV_128)))
(bvsub (concat #x00 ((_ extract 63 56) ymm2))
(concat #x00 ((_ extract 23 16) TMP_BV_128)))
(bvsub (concat #x00 ((_ extract 23 16) TMP_BV_128))
(concat #x00 ((_ extract 63 56) ymm2)))))
(a!12 (ite (bvugt (concat #x00 ((_ extract 71 64) ymm2))
(concat #x00 ((_ extract 31 24) TMP_BV_128)))
(bvsub (concat #x00 ((_ extract 71 64) ymm2))
(concat #x00 ((_ extract 31 24) TMP_BV_128)))
(bvsub (concat #x00 ((_ extract 31 24) TMP_BV_128))
(concat #x00 ((_ extract 71 64) ymm2)))))
(a!13 (ite (bvugt (concat #x00 ((_ extract 39 32) ymm2))
(concat #x00 ((_ extract 7 0) TMP_BV_128)))
(bvsub (concat #x00 ((_ extract 39 32) ymm2))
(concat #x00 ((_ extract 7 0) TMP_BV_128)))
(bvsub (concat #x00 ((_ extract 7 0) TMP_BV_128))
(concat #x00 ((_ extract 39 32) ymm2)))))
(a!14 (ite (bvugt (concat #x00 ((_ extract 47 40) ymm2))
(concat #x00 ((_ extract 15 8) TMP_BV_128)))
(bvsub (concat #x00 ((_ extract 47 40) ymm2))
(concat #x00 ((_ extract 15 8) TMP_BV_128)))
(bvsub (concat #x00 ((_ extract 15 8) TMP_BV_128))
(concat #x00 ((_ extract 47 40) ymm2)))))
(a!15 (ite (bvugt (concat #x00 ((_ extract 55 48) ymm2))
(concat #x00 ((_ extract 23 16) TMP_BV_128)))
(bvsub (concat #x00 ((_ extract 55 48) ymm2))
(concat #x00 ((_ extract 23 16) TMP_BV_128)))
(bvsub (concat #x00 ((_ extract 23 16) TMP_BV_128))
(concat #x00 ((_ extract 55 48) ymm2)))))
(a!16 (ite (bvugt (concat #x00 ((_ extract 63 56) ymm2))
(concat #x00 ((_ extract 31 24) TMP_BV_128)))
(bvsub (concat #x00 ((_ extract 63 56) ymm2))
(concat #x00 ((_ extract 31 24) TMP_BV_128)))
(bvsub (concat #x00 ((_ extract 31 24) TMP_BV_128))
(concat #x00 ((_ extract 63 56) ymm2)))))
(a!17 (ite (bvugt (concat #x00 ((_ extract 31 24) ymm2))
(concat #x00 ((_ extract 7 0) TMP_BV_128)))
(bvsub (concat #x00 ((_ extract 31 24) ymm2))
(concat #x00 ((_ extract 7 0) TMP_BV_128)))
(bvsub (concat #x00 ((_ extract 7 0) TMP_BV_128))
(concat #x00 ((_ extract 31 24) ymm2)))))
(a!18 (ite (bvugt (concat #x00 ((_ extract 39 32) ymm2))
(concat #x00 ((_ extract 15 8) TMP_BV_128)))
(bvsub (concat #x00 ((_ extract 39 32) ymm2))
(concat #x00 ((_ extract 15 8) TMP_BV_128)))
(bvsub (concat #x00 ((_ extract 15 8) TMP_BV_128))
(concat #x00 ((_ extract 39 32) ymm2)))))
(a!19 (ite (bvugt (concat #x00 ((_ extract 47 40) ymm2))
(concat #x00 ((_ extract 23 16) TMP_BV_128)))
(bvsub (concat #x00 ((_ extract 47 40) ymm2))
(concat #x00 ((_ extract 23 16) TMP_BV_128)))
(bvsub (concat #x00 ((_ extract 23 16) TMP_BV_128))
(concat #x00 ((_ extract 47 40) ymm2)))))
(a!20 (ite (bvugt (concat #x00 ((_ extract 55 48) ymm2))
(concat #x00 ((_ extract 31 24) TMP_BV_128)))
(bvsub (concat #x00 ((_ extract 55 48) ymm2))
(concat #x00 ((_ extract 31 24) TMP_BV_128)))
(bvsub (concat #x00 ((_ extract 31 24) TMP_BV_128))
(concat #x00 ((_ extract 55 48) ymm2)))))
(a!21 (ite (bvugt (concat #x00 ((_ extract 23 16) ymm2))
(concat #x00 ((_ extract 7 0) TMP_BV_128)))
(bvsub (concat #x00 ((_ extract 23 16) ymm2))
(concat #x00 ((_ extract 7 0) TMP_BV_128)))
(bvsub (concat #x00 ((_ extract 7 0) TMP_BV_128))
(concat #x00 ((_ extract 23 16) ymm2)))))
(a!22 (ite (bvugt (concat #x00 ((_ extract 31 24) ymm2))
(concat #x00 ((_ extract 15 8) TMP_BV_128)))
(bvsub (concat #x00 ((_ extract 31 24) ymm2))
(concat #x00 ((_ extract 15 8) TMP_BV_128)))
(bvsub (concat #x00 ((_ extract 15 8) TMP_BV_128))
(concat #x00 ((_ extract 31 24) ymm2)))))
(a!23 (ite (bvugt (concat #x00 ((_ extract 39 32) ymm2))
(concat #x00 ((_ extract 23 16) TMP_BV_128)))
(bvsub (concat #x00 ((_ extract 39 32) ymm2))
(concat #x00 ((_ extract 23 16) TMP_BV_128)))
(bvsub (concat #x00 ((_ extract 23 16) TMP_BV_128))
(concat #x00 ((_ extract 39 32) ymm2)))))
(a!24 (ite (bvugt (concat #x00 ((_ extract 47 40) ymm2))
(concat #x00 ((_ extract 31 24) TMP_BV_128)))
(bvsub (concat #x00 ((_ extract 47 40) ymm2))
(concat #x00 ((_ extract 31 24) TMP_BV_128)))
(bvsub (concat #x00 ((_ extract 31 24) TMP_BV_128))
(concat #x00 ((_ extract 47 40) ymm2)))))
(a!25 (ite (bvugt (concat #x00 ((_ extract 15 8) ymm2))
(concat #x00 ((_ extract 7 0) TMP_BV_128)))
(bvsub (concat #x00 ((_ extract 15 8) ymm2))
(concat #x00 ((_ extract 7 0) TMP_BV_128)))
(bvsub (concat #x00 ((_ extract 7 0) TMP_BV_128))
(concat #x00 ((_ extract 15 8) ymm2)))))
(a!26 (ite (bvugt (concat #x00 ((_ extract 23 16) ymm2))
(concat #x00 ((_ extract 15 8) TMP_BV_128)))
(bvsub (concat #x00 ((_ extract 23 16) ymm2))
(concat #x00 ((_ extract 15 8) TMP_BV_128)))
(bvsub (concat #x00 ((_ extract 15 8) TMP_BV_128))
(concat #x00 ((_ extract 23 16) ymm2)))))
(a!27 (ite (bvugt (concat #x00 ((_ extract 31 24) ymm2))
(concat #x00 ((_ extract 23 16) TMP_BV_128)))
(bvsub (concat #x00 ((_ extract 31 24) ymm2))
(concat #x00 ((_ extract 23 16) TMP_BV_128)))
(bvsub (concat #x00 ((_ extract 23 16) TMP_BV_128))
(concat #x00 ((_ extract 31 24) ymm2)))))
(a!28 (ite (bvugt (concat #x00 ((_ extract 39 32) ymm2))
(concat #x00 ((_ extract 31 24) TMP_BV_128)))
(bvsub (concat #x00 ((_ extract 39 32) ymm2))
(concat #x00 ((_ extract 31 24) TMP_BV_128)))
(bvsub (concat #x00 ((_ extract 31 24) TMP_BV_128))
(concat #x00 ((_ extract 39 32) ymm2)))))
(a!29 (ite (bvugt (concat #x00 ((_ extract 7 0) ymm2))
(concat #x00 ((_ extract 7 0) TMP_BV_128)))
(bvsub (concat #x00 ((_ extract 7 0) ymm2))
(concat #x00 ((_ extract 7 0) TMP_BV_128)))
(bvsub (concat #x00 ((_ extract 7 0) TMP_BV_128))
(concat #x00 ((_ extract 7 0) ymm2)))))
(a!30 (ite (bvugt (concat #x00 ((_ extract 15 8) ymm2))
(concat #x00 ((_ extract 15 8) TMP_BV_128)))
(bvsub (concat #x00 ((_ extract 15 8) ymm2))
(concat #x00 ((_ extract 15 8) TMP_BV_128)))
(bvsub (concat #x00 ((_ extract 15 8) TMP_BV_128))
(concat #x00 ((_ extract 15 8) ymm2)))))
(a!31 (ite (bvugt (concat #x00 ((_ extract 23 16) ymm2))
(concat #x00 ((_ extract 23 16) TMP_BV_128)))
(bvsub (concat #x00 ((_ extract 23 16) ymm2))
(concat #x00 ((_ extract 23 16) TMP_BV_128)))
(bvsub (concat #x00 ((_ extract 23 16) TMP_BV_128))
(concat #x00 ((_ extract 23 16) ymm2)))))
(a!32 (ite (bvugt (concat #x00 ((_ extract 31 24) ymm2))
(concat #x00 ((_ extract 31 24) TMP_BV_128)))
(bvsub (concat #x00 ((_ extract 31 24) ymm2))
(concat #x00 ((_ extract 31 24) TMP_BV_128)))
(bvsub (concat #x00 ((_ extract 31 24) TMP_BV_128))
(concat #x00 ((_ extract 31 24) ymm2))))))
(let ((a!33 (concat (bvadd a!17 a!18 a!19 a!20)
(concat (bvadd a!21 a!22 a!23 a!24)
(concat (bvadd a!25 a!26 a!27 a!28)
(bvadd a!29 a!30 a!31 a!32))))))
(let ((a!34 (concat (bvadd a!5 a!6 a!7 a!8)
(concat (bvadd a!9 a!10 a!11 a!12)
(concat (bvadd a!13 a!14 a!15 a!16) a!33)))))
(concat #x00000000000000000000000000000000
(concat (bvadd a!1 a!2 a!3 a!4) a!34)))))
)))
(check-sat)
( pop )



